(set-info :original "/tmp/sea-TKqOtb/string_false-unreach-call_true-termination.pp.ms.o.bc")
(set-info :authors "SeaHorn v.0.1.0-rc3")
(declare-rel verifier.error (Bool Bool Bool ))
(declare-rel main@entry (Int ))
(declare-rel main@_bb (Int (Array Int Int) Int (Array Int Int) Int Int Int Int ))
(declare-rel main@.preheader (Int (Array Int Int) Int (Array Int Int) Int Int Int Int Int ))
(declare-rel main@.lr.ph (Int (Array Int Int) Int (Array Int Int) Int Int Int Int Int Int ))
(declare-rel main@precall.split ())
(declare-var main@%.phi.trans.insert11_0 Int )
(declare-var main@%.phi.trans.insert13_0 Int )
(declare-var main@%_61_0 Int )
(declare-var main@%_62_0 Bool )
(declare-var main@%_63_0 Int )
(declare-var main@%_64_0 Int )
(declare-var main@%_65_0 Int )
(declare-var main@%_66_0 Bool )
(declare-var main@%_67_0 Bool )
(declare-var main@%_68_0 Bool )
(declare-var main@%_57_0 Bool )
(declare-var main@%_58_0 Int )
(declare-var main@%j.0.i2.op_0 Int )
(declare-var main@%.neg_0 Int )
(declare-var main@%i.3.in.i_0 Int )
(declare-var main@%_59_0 Bool )
(declare-var main@%_60_0 Bool )
(declare-var main@%..i_0 Bool )
(declare-var main@%i.3.i.lcssa_1 Int )
(declare-var main@%j.1.i.lcssa_1 Int )
(declare-var main@%_55_2 Int )
(declare-var main@%_56_2 Int )
(declare-var main@%i.2.i3_2 Int )
(declare-var main@%j.0.i2_2 Int )
(declare-var main@%_52_0 Bool )
(declare-var main@%_53_0 Bool )
(declare-var main@%_54_0 Bool )
(declare-var main@%..i1_0 Bool )
(declare-var main@%.phi.trans.insert8_0 Int )
(declare-var main@%_49_0 Bool )
(declare-var main@%_48_2 Int )
(declare-var main@%.phi.trans.insert_0 Int )
(declare-var main@%_46_0 Bool )
(declare-var main@%_0_0 (Array Int Int) )
(declare-var main@%_1_0 (Array Int Int) )
(declare-var main@%_2_0 Int )
(declare-var main@%_3_0 Int )
(declare-var main@%_4_0 Int )
(declare-var @__VERIFIER_nondet_char_0 Int )
(declare-var main@%_6_0 (Array Int Int) )
(declare-var main@%_7_0 Int )
(declare-var main@%_8_0 Int )
(declare-var main@%_9_0 Int )
(declare-var main@%_10_0 (Array Int Int) )
(declare-var main@%_11_0 Int )
(declare-var main@%_12_0 Int )
(declare-var main@%_13_0 Int )
(declare-var main@%_14_0 (Array Int Int) )
(declare-var main@%_15_0 Int )
(declare-var main@%_16_0 Int )
(declare-var main@%_17_0 Int )
(declare-var main@%_18_0 (Array Int Int) )
(declare-var main@%_19_0 Int )
(declare-var main@%_20_0 Int )
(declare-var main@%_21_0 Int )
(declare-var main@%_23_0 Bool )
(declare-var main@%_24_0 Int )
(declare-var main@%_26_0 (Array Int Int) )
(declare-var main@%_27_0 Int )
(declare-var main@%_28_0 Int )
(declare-var main@%_29_0 Int )
(declare-var main@%_30_0 (Array Int Int) )
(declare-var main@%_31_0 Int )
(declare-var main@%_32_0 Int )
(declare-var main@%_33_0 Int )
(declare-var main@%_34_0 (Array Int Int) )
(declare-var main@%_35_0 Int )
(declare-var main@%_36_0 Int )
(declare-var main@%_37_0 Int )
(declare-var main@%_38_0 (Array Int Int) )
(declare-var main@%_39_0 Int )
(declare-var main@%_40_0 Int )
(declare-var main@%_41_0 Int )
(declare-var main@%_43_0 Bool )
(declare-var main@%_45_2 Int )
(declare-var main@entry_0 Bool )
(declare-var main@%string_A.i_0 Int )
(declare-var main@%string_B.i_0 Int )
(declare-var main@%_5_0 Int )
(declare-var main@%_22_0 (Array Int Int) )
(declare-var main@%_25_0 Int )
(declare-var main@%_42_0 (Array Int Int) )
(declare-var main@_bb_0 Bool )
(declare-var main@%_45_0 Int )
(declare-var main@%nc_A.0.i_0 Int )
(declare-var main@%_45_1 Int )
(declare-var main@%nc_A.0.i_1 Int )
(declare-var main@%_47_0 Int )
(declare-var main@._crit_edge_0 Bool )
(declare-var main@%.pre_0 Int )
(declare-var main@_bb_1 Bool )
(declare-var main@%nc_A.0.i_2 Int )
(declare-var main@.preheader.preheader_0 Bool )
(declare-var main@%nc_A.0.i.lcssa_0 Int )
(declare-var main@%nc_A.0.i.lcssa_1 Int )
(declare-var main@.preheader_0 Bool )
(declare-var main@%_48_0 Int )
(declare-var main@%nc_B.0.i_0 Int )
(declare-var main@%_48_1 Int )
(declare-var main@%nc_B.0.i_1 Int )
(declare-var main@%_50_0 Int )
(declare-var main@._crit_edge7_0 Bool )
(declare-var main@%.pre9_0 Int )
(declare-var main@.preheader_1 Bool )
(declare-var main@%nc_B.0.i_2 Int )
(declare-var main@_bb2_0 Bool )
(declare-var main@%nc_B.0.i.lcssa_0 Int )
(declare-var main@%nc_B.0.i.lcssa_1 Int )
(declare-var main@.lr.ph.preheader_0 Bool )
(declare-var main@.lr.ph_0 Bool )
(declare-var main@%_55_0 Int )
(declare-var main@%_56_0 Int )
(declare-var main@%i.2.i3_0 Int )
(declare-var main@%j.0.i2_0 Int )
(declare-var main@%_55_1 Int )
(declare-var main@%_56_1 Int )
(declare-var main@%i.2.i3_1 Int )
(declare-var main@%j.0.i2_1 Int )
(declare-var main@precall_0 Bool )
(declare-var main@%i.2.i.lcssa_0 Int )
(declare-var main@%j.0.i.lcssa_0 Int )
(declare-var main@%i.2.i.lcssa_1 Int )
(declare-var main@%j.0.i.lcssa_1 Int )
(declare-var main@precall.split_0 Bool )
(declare-var main@%j.1.i_0 Int )
(declare-var main@%i.3.i_0 Int )
(declare-var main@._crit_edge10_0 Bool )
(declare-var main@%.pre12_0 Int )
(declare-var main@%.pre14_0 Int )
(declare-var main@.lr.ph_1 Bool )
(declare-var main@precall.loopexit_0 Bool )
(declare-var main@%i.3.i.lcssa_0 Int )
(declare-var main@%j.1.i.lcssa_0 Int )
(rule (verifier.error false false false))
(rule (verifier.error false true true))
(rule (verifier.error true false true))
(rule (verifier.error true true true))
(rule (main@entry @__VERIFIER_nondet_char_0))
(rule (let ((a!1 (= main@%_2_0 (+ (+ main@%string_A.i_0 (* 0 5)) (* 0 1))))
      (a!2 (= main@%_3_0 (+ (+ main@%string_B.i_0 (* 0 5)) (* 0 1))))
      (a!3 (= main@%_9_0 (+ (+ main@%string_A.i_0 (* 0 5)) (* 1 1))))
      (a!4 (= main@%_13_0 (+ (+ main@%string_A.i_0 (* 0 5)) (* 2 1))))
      (a!5 (= main@%_17_0 (+ (+ main@%string_A.i_0 (* 0 5)) (* 3 1))))
      (a!6 (= main@%_21_0 (+ (+ main@%string_A.i_0 (* 0 5)) (* 4 1))))
      (a!7 (= main@%_29_0 (+ (+ main@%string_B.i_0 (* 0 5)) (* 1 1))))
      (a!8 (= main@%_33_0 (+ (+ main@%string_B.i_0 (* 0 5)) (* 2 1))))
      (a!9 (= main@%_37_0 (+ (+ main@%string_B.i_0 (* 0 5)) (* 3 1))))
      (a!10 (= main@%_41_0 (+ (+ main@%string_B.i_0 (* 0 5)) (* 4 1)))))
  (=> (and (main@entry @__VERIFIER_nondet_char_0)
           true
           (> main@%string_A.i_0 0)
           (> main@%string_B.i_0 0)
           a!1
           (or (<= main@%string_A.i_0 0) (> main@%_2_0 0))
           a!2
           (or (<= main@%string_B.i_0 0) (> main@%_3_0 0))
           (= main@%_4_0 @__VERIFIER_nondet_char_0)
           (= main@%_6_0 (store main@%_0_0 main@%_2_0 main@%_5_0))
           (= main@%_7_0 @__VERIFIER_nondet_char_0)
           a!3
           (or (<= main@%string_A.i_0 0) (> main@%_9_0 0))
           (> main@%string_A.i_0 0)
           (= main@%_10_0 (store main@%_6_0 main@%_9_0 main@%_8_0))
           (= main@%_11_0 @__VERIFIER_nondet_char_0)
           a!4
           (or (<= main@%string_A.i_0 0) (> main@%_13_0 0))
           (> main@%string_A.i_0 0)
           (= main@%_14_0 (store main@%_10_0 main@%_13_0 main@%_12_0))
           (= main@%_15_0 @__VERIFIER_nondet_char_0)
           a!5
           (or (<= main@%string_A.i_0 0) (> main@%_17_0 0))
           (> main@%string_A.i_0 0)
           (= main@%_18_0 (store main@%_14_0 main@%_17_0 main@%_16_0))
           (= main@%_19_0 @__VERIFIER_nondet_char_0)
           a!6
           (or (<= main@%string_A.i_0 0) (> main@%_21_0 0))
           (> main@%string_A.i_0 0)
           (= main@%_22_0 (store main@%_18_0 main@%_21_0 main@%_20_0))
           (= main@%_23_0 (= main@%_20_0 0))
           main@%_23_0
           (= main@%_24_0 @__VERIFIER_nondet_char_0)
           (= main@%_26_0 (store main@%_1_0 main@%_3_0 main@%_25_0))
           (= main@%_27_0 @__VERIFIER_nondet_char_0)
           a!7
           (or (<= main@%string_B.i_0 0) (> main@%_29_0 0))
           (> main@%string_B.i_0 0)
           (= main@%_30_0 (store main@%_26_0 main@%_29_0 main@%_28_0))
           (= main@%_31_0 @__VERIFIER_nondet_char_0)
           a!8
           (or (<= main@%string_B.i_0 0) (> main@%_33_0 0))
           (> main@%string_B.i_0 0)
           (= main@%_34_0 (store main@%_30_0 main@%_33_0 main@%_32_0))
           (= main@%_35_0 @__VERIFIER_nondet_char_0)
           a!9
           (or (<= main@%string_B.i_0 0) (> main@%_37_0 0))
           (> main@%string_B.i_0 0)
           (= main@%_38_0 (store main@%_34_0 main@%_37_0 main@%_36_0))
           (= main@%_39_0 @__VERIFIER_nondet_char_0)
           a!10
           (or (<= main@%string_B.i_0 0) (> main@%_41_0 0))
           (> main@%string_B.i_0 0)
           (= main@%_42_0 (store main@%_38_0 main@%_41_0 main@%_40_0))
           (= main@%_43_0 (= main@%_40_0 0))
           main@%_43_0
           (=> main@_bb_0 (and main@_bb_0 main@entry_0))
           main@_bb_0
           (=> (and main@_bb_0 main@entry_0) (= main@%_45_0 main@%_5_0))
           (=> (and main@_bb_0 main@entry_0) (= main@%nc_A.0.i_0 0))
           (=> (and main@_bb_0 main@entry_0) (= main@%_45_1 main@%_45_0))
           (=> (and main@_bb_0 main@entry_0)
               (= main@%nc_A.0.i_1 main@%nc_A.0.i_0)))
      (main@_bb main@%string_A.i_0
                main@%_22_0
                main@%string_B.i_0
                main@%_42_0
                main@%_25_0
                main@%_5_0
                main@%_45_1
                main@%nc_A.0.i_1))))
(rule (let ((a!1 (=> main@._crit_edge_0
               (= main@%.phi.trans.insert_0
                  (+ main@%string_A.i_0 (* 0 5) (* main@%_47_0 1))))))
(let ((a!2 (and (main@_bb main@%string_A.i_0
                          main@%_22_0
                          main@%string_B.i_0
                          main@%_42_0
                          main@%_25_0
                          main@%_5_0
                          main@%_45_0
                          main@%nc_A.0.i_0)
                true
                (= main@%_46_0 (= main@%_45_0 0))
                (= main@%_47_0 (+ main@%nc_A.0.i_0 1))
                (=> main@._crit_edge_0 (and main@._crit_edge_0 main@_bb_0))
                (=> (and main@._crit_edge_0 main@_bb_0) (not main@%_46_0))
                a!1
                (=> main@._crit_edge_0
                    (or (<= main@%string_A.i_0 0)
                        (> main@%.phi.trans.insert_0 0)))
                (=> main@._crit_edge_0 (> main@%string_A.i_0 0))
                (=> main@._crit_edge_0
                    (= main@%.pre_0
                       (select main@%_22_0 main@%.phi.trans.insert_0)))
                (=> main@_bb_1 (and main@_bb_1 main@._crit_edge_0))
                main@_bb_1
                (=> (and main@_bb_1 main@._crit_edge_0)
                    (= main@%_45_1 main@%.pre_0))
                (=> (and main@_bb_1 main@._crit_edge_0)
                    (= main@%nc_A.0.i_1 main@%_47_0))
                (=> (and main@_bb_1 main@._crit_edge_0)
                    (= main@%_45_2 main@%_45_1))
                (=> (and main@_bb_1 main@._crit_edge_0)
                    (= main@%nc_A.0.i_2 main@%nc_A.0.i_1)))))
  (=> a!2
      (main@_bb main@%string_A.i_0
                main@%_22_0
                main@%string_B.i_0
                main@%_42_0
                main@%_25_0
                main@%_5_0
                main@%_45_2
                main@%nc_A.0.i_2)))))
(rule (=> (and (main@_bb main@%string_A.i_0
                   main@%_22_0
                   main@%string_B.i_0
                   main@%_42_0
                   main@%_25_0
                   main@%_5_0
                   main@%_45_0
                   main@%nc_A.0.i_0)
         true
         (= main@%_46_0 (= main@%_45_0 0))
         (= main@%_47_0 (+ main@%nc_A.0.i_0 1))
         (=> main@.preheader.preheader_0
             (and main@.preheader.preheader_0 main@_bb_0))
         (=> (and main@.preheader.preheader_0 main@_bb_0) main@%_46_0)
         (=> (and main@.preheader.preheader_0 main@_bb_0)
             (= main@%nc_A.0.i.lcssa_0 main@%nc_A.0.i_0))
         (=> (and main@.preheader.preheader_0 main@_bb_0)
             (= main@%nc_A.0.i.lcssa_1 main@%nc_A.0.i.lcssa_0))
         (=> main@.preheader_0
             (and main@.preheader_0 main@.preheader.preheader_0))
         main@.preheader_0
         (=> (and main@.preheader_0 main@.preheader.preheader_0)
             (= main@%_48_0 main@%_25_0))
         (=> (and main@.preheader_0 main@.preheader.preheader_0)
             (= main@%nc_B.0.i_0 0))
         (=> (and main@.preheader_0 main@.preheader.preheader_0)
             (= main@%_48_1 main@%_48_0))
         (=> (and main@.preheader_0 main@.preheader.preheader_0)
             (= main@%nc_B.0.i_1 main@%nc_B.0.i_0)))
    (main@.preheader main@%string_A.i_0
                     main@%_22_0
                     main@%string_B.i_0
                     main@%_42_0
                     main@%nc_A.0.i.lcssa_1
                     main@%_25_0
                     main@%_5_0
                     main@%_48_1
                     main@%nc_B.0.i_1)))
(rule (let ((a!1 (=> main@._crit_edge7_0
               (= main@%.phi.trans.insert8_0
                  (+ main@%string_B.i_0 (* 0 5) (* main@%_50_0 1))))))
(let ((a!2 (and (main@.preheader main@%string_A.i_0
                                 main@%_22_0
                                 main@%string_B.i_0
                                 main@%_42_0
                                 main@%nc_A.0.i.lcssa_0
                                 main@%_25_0
                                 main@%_5_0
                                 main@%_48_0
                                 main@%nc_B.0.i_0)
                true
                (= main@%_49_0 (= main@%_48_0 0))
                (= main@%_50_0 (+ main@%nc_B.0.i_0 1))
                (=> main@._crit_edge7_0
                    (and main@._crit_edge7_0 main@.preheader_0))
                (=> (and main@._crit_edge7_0 main@.preheader_0)
                    (not main@%_49_0))
                a!1
                (=> main@._crit_edge7_0
                    (or (<= main@%string_B.i_0 0)
                        (> main@%.phi.trans.insert8_0 0)))
                (=> main@._crit_edge7_0 (> main@%string_B.i_0 0))
                (=> main@._crit_edge7_0
                    (= main@%.pre9_0
                       (select main@%_42_0 main@%.phi.trans.insert8_0)))
                (=> main@.preheader_1
                    (and main@.preheader_1 main@._crit_edge7_0))
                main@.preheader_1
                (=> (and main@.preheader_1 main@._crit_edge7_0)
                    (= main@%_48_1 main@%.pre9_0))
                (=> (and main@.preheader_1 main@._crit_edge7_0)
                    (= main@%nc_B.0.i_1 main@%_50_0))
                (=> (and main@.preheader_1 main@._crit_edge7_0)
                    (= main@%_48_2 main@%_48_1))
                (=> (and main@.preheader_1 main@._crit_edge7_0)
                    (= main@%nc_B.0.i_2 main@%nc_B.0.i_1)))))
  (=> a!2
      (main@.preheader main@%string_A.i_0
                       main@%_22_0
                       main@%string_B.i_0
                       main@%_42_0
                       main@%nc_A.0.i.lcssa_0
                       main@%_25_0
                       main@%_5_0
                       main@%_48_2
                       main@%nc_B.0.i_2)))))
(rule (let ((a!1 (and (main@.preheader main@%string_A.i_0
                                 main@%_22_0
                                 main@%string_B.i_0
                                 main@%_42_0
                                 main@%nc_A.0.i.lcssa_0
                                 main@%_25_0
                                 main@%_5_0
                                 main@%_48_0
                                 main@%nc_B.0.i_0)
                true
                (= main@%_49_0 (= main@%_48_0 0))
                (= main@%_50_0 (+ main@%nc_B.0.i_0 1))
                (=> main@_bb2_0 (and main@_bb2_0 main@.preheader_0))
                (=> (and main@_bb2_0 main@.preheader_0) main@%_49_0)
                (=> (and main@_bb2_0 main@.preheader_0)
                    (= main@%nc_B.0.i.lcssa_0 main@%nc_B.0.i_0))
                (=> (and main@_bb2_0 main@.preheader_0)
                    (= main@%nc_B.0.i.lcssa_1 main@%nc_B.0.i.lcssa_0))
                (=> main@_bb2_0
                    (= main@%_52_0
                       (< main@%nc_B.0.i.lcssa_1 main@%nc_A.0.i.lcssa_0)))
                (=> main@_bb2_0 (not main@%_52_0))
                (=> main@_bb2_0 (= main@%_53_0 (> main@%nc_A.0.i.lcssa_0 0)))
                (=> main@_bb2_0 (= main@%_54_0 (> main@%nc_B.0.i.lcssa_1 0)))
                (=> main@_bb2_0 (= main@%..i1_0 (and main@%_54_0 main@%_53_0)))
                (=> main@.lr.ph.preheader_0
                    (and main@.lr.ph.preheader_0 main@_bb2_0))
                (=> (and main@.lr.ph.preheader_0 main@_bb2_0) main@%..i1_0)
                (=> main@.lr.ph_0 (and main@.lr.ph_0 main@.lr.ph.preheader_0))
                main@.lr.ph_0
                (=> (and main@.lr.ph_0 main@.lr.ph.preheader_0)
                    (= main@%_55_0 main@%_25_0))
                (=> (and main@.lr.ph_0 main@.lr.ph.preheader_0)
                    (= main@%_56_0 main@%_5_0))
                (=> (and main@.lr.ph_0 main@.lr.ph.preheader_0)
                    (= main@%i.2.i3_0 0))
                (=> (and main@.lr.ph_0 main@.lr.ph.preheader_0)
                    (= main@%j.0.i2_0 0))
                (=> (and main@.lr.ph_0 main@.lr.ph.preheader_0)
                    (= main@%_55_1 main@%_55_0))
                (=> (and main@.lr.ph_0 main@.lr.ph.preheader_0)
                    (= main@%_56_1 main@%_56_0))
                (=> (and main@.lr.ph_0 main@.lr.ph.preheader_0)
                    (= main@%i.2.i3_1 main@%i.2.i3_0))
                (=> (and main@.lr.ph_0 main@.lr.ph.preheader_0)
                    (= main@%j.0.i2_1 main@%j.0.i2_0)))))
  (=> a!1
      (main@.lr.ph main@%string_A.i_0
                   main@%_22_0
                   main@%string_B.i_0
                   main@%_42_0
                   main@%_55_1
                   main@%_56_1
                   main@%i.2.i3_1
                   main@%j.0.i2_1
                   main@%nc_B.0.i.lcssa_1
                   main@%nc_A.0.i.lcssa_0))))
(rule (let ((a!1 (=> main@precall_0
               (and (=> (= main@%_63_0 0) (= main@%_65_0 0))
                    (=> (= main@%_64_0 0) (= main@%_65_0 0))))))
(let ((a!2 (and (main@.preheader main@%string_A.i_0
                                 main@%_22_0
                                 main@%string_B.i_0
                                 main@%_42_0
                                 main@%nc_A.0.i.lcssa_0
                                 main@%_25_0
                                 main@%_5_0
                                 main@%_48_0
                                 main@%nc_B.0.i_0)
                true
                (= main@%_49_0 (= main@%_48_0 0))
                (= main@%_50_0 (+ main@%nc_B.0.i_0 1))
                (=> main@_bb2_0 (and main@_bb2_0 main@.preheader_0))
                (=> (and main@_bb2_0 main@.preheader_0) main@%_49_0)
                (=> (and main@_bb2_0 main@.preheader_0)
                    (= main@%nc_B.0.i.lcssa_0 main@%nc_B.0.i_0))
                (=> (and main@_bb2_0 main@.preheader_0)
                    (= main@%nc_B.0.i.lcssa_1 main@%nc_B.0.i.lcssa_0))
                (=> main@_bb2_0
                    (= main@%_52_0
                       (< main@%nc_B.0.i.lcssa_1 main@%nc_A.0.i.lcssa_0)))
                (=> main@_bb2_0 (not main@%_52_0))
                (=> main@_bb2_0 (= main@%_53_0 (> main@%nc_A.0.i.lcssa_0 0)))
                (=> main@_bb2_0 (= main@%_54_0 (> main@%nc_B.0.i.lcssa_1 0)))
                (=> main@_bb2_0 (= main@%..i1_0 (and main@%_54_0 main@%_53_0)))
                (=> main@precall_0 (and main@precall_0 main@_bb2_0))
                (=> (and main@precall_0 main@_bb2_0) (not main@%..i1_0))
                (=> (and main@precall_0 main@_bb2_0) (= main@%i.2.i.lcssa_0 0))
                (=> (and main@precall_0 main@_bb2_0) (= main@%j.0.i.lcssa_0 0))
                (=> (and main@precall_0 main@_bb2_0)
                    (= main@%i.2.i.lcssa_1 main@%i.2.i.lcssa_0))
                (=> (and main@precall_0 main@_bb2_0)
                    (= main@%j.0.i.lcssa_1 main@%j.0.i.lcssa_0))
                (=> main@precall_0
                    (= main@%_61_0 (+ main@%nc_B.0.i.lcssa_1 (- 1))))
                (=> main@precall_0
                    (= main@%_62_0 (> main@%j.0.i.lcssa_1 main@%_61_0)))
                (=> main@precall_0 (= main@%_63_0 (ite main@%_62_0 1 0)))
                a!1
                (=> main@precall_0 (= main@%_66_0 (= main@%_65_0 0)))
                (=> main@precall_0 (not main@%_67_0))
                (=> main@precall_0 (= main@%_68_0 (= main@%_66_0 false)))
                (=> main@precall_0 main@%_68_0)
                (=> main@precall.split_0
                    (and main@precall.split_0 main@precall_0))
                main@precall.split_0)))
  (=> a!2 main@precall.split))))
(rule (let ((a!1 (=> main@._crit_edge10_0
               (= main@%.phi.trans.insert11_0
                  (+ main@%string_A.i_0 (* 0 5) (* main@%i.3.i_0 1)))))
      (a!2 (=> main@._crit_edge10_0
               (= main@%.phi.trans.insert13_0
                  (+ main@%string_B.i_0 (* 0 5) (* main@%j.1.i_0 1))))))
(let ((a!3 (and (main@.lr.ph main@%string_A.i_0
                             main@%_22_0
                             main@%string_B.i_0
                             main@%_42_0
                             main@%_55_0
                             main@%_56_0
                             main@%i.2.i3_0
                             main@%j.0.i2_0
                             main@%nc_B.0.i.lcssa_0
                             main@%nc_A.0.i.lcssa_0)
                true
                (= main@%_57_0 (= main@%_56_0 main@%_55_0))
                (= main@%_58_0 (+ main@%j.0.i2_0 1))
                (= main@%j.1.i_0 (ite main@%_57_0 main@%_58_0 0))
                (= main@%j.0.i2.op_0 (- 0 main@%j.0.i2_0))
                (= main@%.neg_0 (ite main@%_57_0 0 main@%j.0.i2.op_0))
                (= main@%i.3.in.i_0 (+ main@%i.2.i3_0 1))
                (= main@%i.3.i_0 (+ main@%i.3.in.i_0 main@%.neg_0))
                (= main@%_59_0 (< main@%i.3.i_0 main@%nc_A.0.i.lcssa_0))
                (= main@%_60_0 (< main@%j.1.i_0 main@%nc_B.0.i.lcssa_0))
                (= main@%..i_0 (and main@%_60_0 main@%_59_0))
                (=> main@._crit_edge10_0
                    (and main@._crit_edge10_0 main@.lr.ph_0))
                (=> (and main@._crit_edge10_0 main@.lr.ph_0) main@%..i_0)
                a!1
                (=> main@._crit_edge10_0
                    (or (<= main@%string_A.i_0 0)
                        (> main@%.phi.trans.insert11_0 0)))
                (=> main@._crit_edge10_0 (> main@%string_A.i_0 0))
                (=> main@._crit_edge10_0
                    (= main@%.pre12_0
                       (select main@%_22_0 main@%.phi.trans.insert11_0)))
                a!2
                (=> main@._crit_edge10_0
                    (or (<= main@%string_B.i_0 0)
                        (> main@%.phi.trans.insert13_0 0)))
                (=> main@._crit_edge10_0 (> main@%string_B.i_0 0))
                (=> main@._crit_edge10_0
                    (= main@%.pre14_0
                       (select main@%_42_0 main@%.phi.trans.insert13_0)))
                (=> main@.lr.ph_1 (and main@.lr.ph_1 main@._crit_edge10_0))
                main@.lr.ph_1
                (=> (and main@.lr.ph_1 main@._crit_edge10_0)
                    (= main@%_55_1 main@%.pre14_0))
                (=> (and main@.lr.ph_1 main@._crit_edge10_0)
                    (= main@%_56_1 main@%.pre12_0))
                (=> (and main@.lr.ph_1 main@._crit_edge10_0)
                    (= main@%i.2.i3_1 main@%i.3.i_0))
                (=> (and main@.lr.ph_1 main@._crit_edge10_0)
                    (= main@%j.0.i2_1 main@%j.1.i_0))
                (=> (and main@.lr.ph_1 main@._crit_edge10_0)
                    (= main@%_55_2 main@%_55_1))
                (=> (and main@.lr.ph_1 main@._crit_edge10_0)
                    (= main@%_56_2 main@%_56_1))
                (=> (and main@.lr.ph_1 main@._crit_edge10_0)
                    (= main@%i.2.i3_2 main@%i.2.i3_1))
                (=> (and main@.lr.ph_1 main@._crit_edge10_0)
                    (= main@%j.0.i2_2 main@%j.0.i2_1)))))
  (=> a!3
      (main@.lr.ph main@%string_A.i_0
                   main@%_22_0
                   main@%string_B.i_0
                   main@%_42_0
                   main@%_55_2
                   main@%_56_2
                   main@%i.2.i3_2
                   main@%j.0.i2_2
                   main@%nc_B.0.i.lcssa_0
                   main@%nc_A.0.i.lcssa_0)))))
(rule (let ((a!1 (=> main@precall_0
               (and (=> (= main@%_63_0 0) (= main@%_65_0 0))
                    (=> (= main@%_64_0 0) (= main@%_65_0 0))))))
(let ((a!2 (and (main@.lr.ph main@%string_A.i_0
                             main@%_22_0
                             main@%string_B.i_0
                             main@%_42_0
                             main@%_55_0
                             main@%_56_0
                             main@%i.2.i3_0
                             main@%j.0.i2_0
                             main@%nc_B.0.i.lcssa_0
                             main@%nc_A.0.i.lcssa_0)
                true
                (= main@%_57_0 (= main@%_56_0 main@%_55_0))
                (= main@%_58_0 (+ main@%j.0.i2_0 1))
                (= main@%j.1.i_0 (ite main@%_57_0 main@%_58_0 0))
                (= main@%j.0.i2.op_0 (- 0 main@%j.0.i2_0))
                (= main@%.neg_0 (ite main@%_57_0 0 main@%j.0.i2.op_0))
                (= main@%i.3.in.i_0 (+ main@%i.2.i3_0 1))
                (= main@%i.3.i_0 (+ main@%i.3.in.i_0 main@%.neg_0))
                (= main@%_59_0 (< main@%i.3.i_0 main@%nc_A.0.i.lcssa_0))
                (= main@%_60_0 (< main@%j.1.i_0 main@%nc_B.0.i.lcssa_0))
                (= main@%..i_0 (and main@%_60_0 main@%_59_0))
                (=> main@precall.loopexit_0
                    (and main@precall.loopexit_0 main@.lr.ph_0))
                (=> (and main@precall.loopexit_0 main@.lr.ph_0)
                    (not main@%..i_0))
                (=> (and main@precall.loopexit_0 main@.lr.ph_0)
                    (= main@%i.3.i.lcssa_0 main@%i.3.i_0))
                (=> (and main@precall.loopexit_0 main@.lr.ph_0)
                    (= main@%j.1.i.lcssa_0 main@%j.1.i_0))
                (=> (and main@precall.loopexit_0 main@.lr.ph_0)
                    (= main@%i.3.i.lcssa_1 main@%i.3.i.lcssa_0))
                (=> (and main@precall.loopexit_0 main@.lr.ph_0)
                    (= main@%j.1.i.lcssa_1 main@%j.1.i.lcssa_0))
                (=> main@precall_0 (and main@precall_0 main@precall.loopexit_0))
                (=> (and main@precall_0 main@precall.loopexit_0)
                    (= main@%i.2.i.lcssa_0 main@%i.3.i.lcssa_1))
                (=> (and main@precall_0 main@precall.loopexit_0)
                    (= main@%j.0.i.lcssa_0 main@%j.1.i.lcssa_1))
                (=> (and main@precall_0 main@precall.loopexit_0)
                    (= main@%i.2.i.lcssa_1 main@%i.2.i.lcssa_0))
                (=> (and main@precall_0 main@precall.loopexit_0)
                    (= main@%j.0.i.lcssa_1 main@%j.0.i.lcssa_0))
                (=> main@precall_0
                    (= main@%_61_0 (+ main@%nc_B.0.i.lcssa_0 (- 1))))
                (=> main@precall_0
                    (= main@%_62_0 (> main@%j.0.i.lcssa_1 main@%_61_0)))
                (=> main@precall_0 (= main@%_63_0 (ite main@%_62_0 1 0)))
                a!1
                (=> main@precall_0 (= main@%_66_0 (= main@%_65_0 0)))
                (=> main@precall_0 (not main@%_67_0))
                (=> main@precall_0 (= main@%_68_0 (= main@%_66_0 false)))
                (=> main@precall_0 main@%_68_0)
                (=> main@precall.split_0
                    (and main@precall.split_0 main@precall_0))
                main@precall.split_0)))
  (=> a!2 main@precall.split))))
(query main@precall.split)

